% Generated by MiniZinc 2.9.3
% Solver library: /home/icwmmarijnisse/Pumpkin/minizinc/lib
% Command line invocation: minizinc --compile --fzn ./instance.fzn --ozn ./instance.ozn --solver pumpkin ../../../../benchmarks/models/rcpsp/rcpsp_smaller.mzn ../../../../benchmarks/models/rcpsp/small_08.dzn 

array [1..2] of int: X_INTRODUCED_24_ = [1,-1];
var 0..29: X_INTRODUCED_16_;
var 0..29: X_INTRODUCED_17_;
var 0..29: X_INTRODUCED_18_;
var 0..29: X_INTRODUCED_19_;
var 0..29: X_INTRODUCED_20_;
var 0..30: Objective:: output_var;
array [1..5] of var int: Start:: output_array([1..5]) = [X_INTRODUCED_16_,X_INTRODUCED_17_,X_INTRODUCED_18_,X_INTRODUCED_19_,X_INTRODUCED_20_];
array [1..5] of var int: X_INTRODUCED_28_ ::var_is_introduced  = [X_INTRODUCED_16_,X_INTRODUCED_17_,X_INTRODUCED_18_,X_INTRODUCED_19_,Objective];
constraint int_lin_le(X_INTRODUCED_24_,[X_INTRODUCED_17_,X_INTRODUCED_19_],-9);
constraint int_lin_le(X_INTRODUCED_24_,[X_INTRODUCED_16_,Objective],-7);
constraint int_lin_le(X_INTRODUCED_24_,[X_INTRODUCED_18_,Objective],-3);
constraint int_lin_le(X_INTRODUCED_24_,[X_INTRODUCED_19_,Objective],-3);
solve :: int_search(X_INTRODUCED_28_,smallest,indomain_min,complete) minimize Objective;
